\ LP format - for model browsing. Use MPS format to capture full model detail.
Maximize
  6 x_1 + 9 x_2 + 3 x_3 + x_4 + 10 x_5 + 8 x_6 + 6 x_7 + 3 x_8 + 8 x_9
   + 9 x_10 + x_11 + 9 x_12 + 3 x_13 + 5 x_14 + 10 x_15
Subject To
 C_1: 3 x_1 + 4 x_2 + 2 x_3 + 3 x_4 + 5 x_5 + 7 x_6 + 4 x_7 + 4 x_8 + 4 x_9
   + x_10 + 9 x_11 + 4 x_12 + 4 x_13 + 9 x_14 + 9 x_15 <= 36
 C_2: 7 x_1 + 4 x_2 + 7 x_3 + 2 x_4 + 7 x_5 + 8 x_6 + x_7 + 4 x_8 + 3 x_9
   + 8 x_10 + 2 x_11 + 3 x_12 + 6 x_13 + 7 x_14 + 8 x_15 <= 38
 C_3: 7 x_1 + 9 x_2 + 3 x_3 + 8 x_4 + x_5 + 7 x_6 + 6 x_7 + 7 x_8 + x_9
   + x_10 + 9 x_11 + x_12 + 5 x_13 + 2 x_14 + 10 x_15 <= 38
 C_4: 3 x_1 + 10 x_2 + 5 x_3 + x_4 + 3 x_5 + 3 x_6 + 9 x_7 + 3 x_8 + 6 x_9
   + x_10 + 3 x_11 + 10 x_12 + 5 x_13 + 10 x_14 + 8 x_15 <= 40
 C_5: 2 x_1 + 7 x_2 + 8 x_3 + 5 x_4 + 6 x_5 + x_6 + 3 x_7 + 2 x_8 + 7 x_9
   + 3 x_10 + 4 x_11 + 5 x_12 + 4 x_13 + 8 x_14 + 8 x_15 <= 36
Bounds
Binaries
 x_1 x_2 x_3 x_4 x_5 x_6 x_7 x_8 x_9 x_10 x_11 x_12 x_13 x_14 x_15
End
